NAME: I16912-n41-k5
COMMENT : (Fake et al, No of trucks: 5, Optimal value: )
TYPE : CVRP
DIMENSION : 41
EDGE_WEIGHT_TYPE : EUC_2D
CAPACITY : 18
NODE_COORD_SECTION
1 424 843
2 668 838
3 64 597
4 809 511
5 995 119
6 999 457
7 678 79
8 695 969
9 230 501
10 978 74
11 112 568
12 166 874
13 361 580
14 891 684
15 417 871
16 903 902
17 154 959
18 397 220
19 641 295
20 36 461
21 595 629
22 893 444
23 699 729
24 659 193
25 3 739
26 600 84
27 214 427
28 679 956
29 719 199
30 144 50
31 871 728
32 63 280
33 457 727
34 28 328
35 414 654
36 772 234
37 917 443
38 591 960
39 408 433
40 465 369
41 679 967
DEMAND_SECTION
1 0
2 1
3 1
4 2
5 3
6 3
7 3
8 3
9 2
10 3
11 1
12 2
13 1
14 1
15 1
16 2
17 1
18 2
19 2
20 3
21 2
22 1
23 3
24 1
25 3
26 3
27 3
28 1
29 2
30 2
31 3
32 1
33 1
34 1
35 2
36 2
37 2
38 1
39 3
40 2
41 2
DEPOT_SECTION
 1
 -1
 EOF 